50 9955
5204 8946 3448 3819 9654 2420 9863 9800 6928 8406 6294 3941 6801 5070 3608 6560 1769 7795 2070 7583 6008 9595 8183 6695 1696 6463 10616 3742 7561 10171 9801 5352 4481 9858 3396 3182 1997 9887 10458 2606 2737 8470 8844 10955 9656 2552 7331 3764 4465 3493 
4204 7946 2448 2819 8654 1420 8863 8800 5928 7406 5294 2941 5801 4070 2608 5560 769 6795 1070 6583 5008 8595 7183 5695 696 5463 9616 2742 6561 9171 8801 4352 3481 8858 2396 2182 997 8887 9458 1606 1737 7470 7844 9955 8656 1552 6331 2764 3465 2493 
